




                       MSC.Patran 21.0.306208 Wed Nov 19 21:06:29 PST 2014 - Analysis Code: MSC.Nastran 

                                   Load Case: SC104: AIRCRAFT TYPE SIERRA, A1:Static Subcase 

                                             Result Stress Tensor,  - Layer At Z1 

                                                     Entity: Element Tensor


-Entity ID---X Location----Y Location----Z Location----von Mises---
      26        0.102850      0.000000      0.313500  486114176.00
      62        0.308550      0.000000      0.313500  528109536.00
      98        0.514250      0.000000      0.313500  563848960.00
     134        0.720000      0.000000      0.313500  590981568.00
     170        0.925750      0.000000      0.313500  609556288.00
     206        1.131450      0.000000      0.313500  619781248.00
     242        1.337150      0.000000      0.313500  623426944.00
     278        1.542850      0.000000      0.313500  621573376.00
     314        1.748550      0.000000      0.313500  615967552.00
     350        1.954250      0.000000      0.313500  607897088.00
     386        2.160000      0.000000      0.313500  598948992.00
     422        2.365750      0.000000      0.313500  593368896.00
     458        2.571450      0.000000      0.313500  595323776.00
     494        2.777150      0.000000      0.313500  615024256.00
     530        2.983350     -0.065075      0.312630  584995712.00
     566        3.190000     -0.195200      0.310890  503025504.00
     602        3.396650     -0.325350      0.309150  435670944.00
     638        3.603350     -0.455525      0.307415  383738720.00
     674        3.810000     -0.585650      0.305680  351270560.00
     710        4.016650     -0.715775      0.303940  344990336.00
     746        4.223350     -0.845950      0.302200  358047744.00
     782        4.430000     -0.976100      0.300460  380303744.00
     818        4.636650     -1.106225      0.298720  399935360.00
     854        4.843350     -1.236375      0.296980  416406272.00
     890        5.050000     -1.366525      0.295240  428090848.00
     926        5.256650     -1.496675      0.293505  436834272.00
     962        5.463350     -1.626825      0.291770  442506272.00
     998        5.670000     -1.756950      0.290030  445460224.00
    1034        5.876650     -1.887100      0.288290  446797472.00
    1070        6.083350     -2.017250      0.286550  447194816.00
    1106        6.290000     -2.147375      0.284810  446895648.00
    1142        6.496650     -2.277525      0.283070  446242784.00
    1178        6.703350     -2.407675      0.281335  446047872.00
    1214        6.910000     -2.537825      0.279600  445684768.00
    1250        7.116650     -2.667975      0.277860  444659296.00
    1286        7.323350     -2.798100      0.276120  443460512.00
    1322        7.530000     -2.928250      0.274380  442149088.00
    1358        7.736650     -3.058425      0.272640  440521408.00
    1394        7.943350     -3.188550      0.270900  438899456.00
    1430        8.150000     -3.318675      0.269160  437258144.00
    1466        8.356649     -3.448850      0.267425  437115872.00
    1502        8.563351     -3.579000      0.265690  438065792.00
    1538        8.770000     -3.709125      0.263950  439105312.00
    1574        8.976650     -3.839275      0.262210  439261248.00
    1610        9.183351     -3.969425      0.260470  437723200.00
    1646        9.390000     -4.099575      0.258730  434421280.00
    1682        9.596650     -4.229725      0.256990  430657664.00
    1718        9.805150     -4.361000      0.255235  427656416.00
    1754       10.015450     -4.493450      0.253470  426352128.00
    1790       10.225750     -4.625900      0.251705  425973472.00
    1826       10.436049     -4.758325      0.249935  425039584.00
    1862       10.646350     -4.890775      0.248165  424146528.00
    1898       10.856700     -5.023225      0.246395  422797152.00
    1934       11.067050     -5.155650      0.244625  421379456.00
    1970       11.277349     -5.288075      0.242855  419474976.00
    2006       11.487650     -5.420525      0.241085  417618176.00
    2042       11.697950     -5.552950      0.239315  415455520.00
    2078       11.908250     -5.685375      0.237545  413387872.00
    2114       12.118549     -5.817825      0.235775  411084000.00
    2150       12.328850     -5.950275      0.234005  408822720.00
    2186       12.539150     -6.082700      0.232235  406319488.00
    2222       12.749450     -6.215125      0.230465  403830624.00
    2258       12.959750     -6.347575      0.228695  401201024.00
    2294       13.170100     -6.480025      0.226930  399273024.00
    2330       13.380450     -6.612451      0.225165  397182816.00
    2366       13.590750     -6.744900      0.223395  394446976.00
    2402       13.801050     -6.877350      0.221625  391669120.00
    2438       14.011351     -7.009775      0.219855  388950144.00
    2474       14.221650     -7.142200      0.218085  386203712.00
    2510       14.431950     -7.274650      0.216315  383480928.00
    2546       14.642250     -7.407100      0.214545  380693600.00
    2582       14.852550     -7.539525      0.212775  377878848.00
    2618       15.062850     -7.671975      0.211005  374995840.00
    2654       15.273200     -7.804425      0.209235  372112576.00
    2690       15.483550     -7.936851      0.207465  369104128.00
    2726       15.693851     -8.069275      0.205695  365916832.00
    2762       15.904150     -8.201725      0.203925  362596416.00
    2798       16.114450     -8.334175      0.202155  359213760.00
    2834       16.324751     -8.466600      0.200390  356383488.00
    2870       16.535049     -8.599051      0.198625  353453152.00
    2906       16.745350     -8.731500      0.196855  349843584.00
    2942       16.955650     -8.863925      0.195085  346231456.00
    2978       17.165951     -8.996349      0.193315  342614496.00
    3014       17.376249     -9.128799      0.191545  338997280.00
    3050       17.586599     -9.261250      0.189775  335393216.00
    3086       17.796949     -9.393675      0.188005  331718752.00
    3122       18.007250     -9.526125      0.186235  327920992.00
    3158       18.217550     -9.658575      0.184465  324055296.00
    3194       18.427851     -9.791000      0.182695  320091264.00
    3230       18.638151     -9.923426      0.180925  315972864.00
    3266       18.848450    -10.055876      0.179155  311680480.00
    3302       19.058750    -10.188326      0.177385  307267680.00
    3338       19.269051    -10.320750      0.175620  303353952.00
    3374       19.479351    -10.453199      0.173855  299291744.00
    3410       19.689650    -10.585649      0.172085  294564736.00
    3446       19.900000    -10.718075      0.170315  289879872.00
    3482       20.110350    -10.850500      0.168545  285191264.00
    3518       20.320650    -10.982950      0.166775  280421216.00
    3554       20.530951    -11.115400      0.165005  275582272.00
    3590       20.741249    -11.247825      0.163235  270644288.00
    3626       20.951550    -11.380276      0.161465  265610288.00
    3662       21.161850    -11.512725      0.159695  260476096.00
    3698       21.372150    -11.645150      0.157925  255252144.00
    3734       21.582449    -11.777575      0.156155  249908912.00
    3770       21.792751    -11.910025      0.154385  244394448.00
    3806       22.003050    -12.042475      0.152615  238653664.00
    3842       22.213402    -12.174900      0.150845  232781184.00
    3878       22.423750    -12.307350      0.149080  227308624.00
    3914       22.634048    -12.439800      0.147315  221640336.00
    3950       22.844351    -12.572201      0.145545  215376368.00
    3986       23.054649    -12.704624      0.143775  209136720.00
    4022       23.264950    -12.837074      0.142005  202878000.00
    4058       23.475250    -12.969525      0.140235  196543136.00
    4094       23.685551    -13.101950      0.138465  190085136.00
    4130       23.895849    -13.234400      0.136695  183496064.00
    4166       24.106152    -13.366850      0.134925  176793824.00
    4202       24.316450    -13.499275      0.133155  169970368.00
    4238       24.526802    -13.631700      0.131385  163098688.00
    4274       24.737150    -13.764151      0.129615  156128704.00
    4310       24.947449    -13.896601      0.127845  149017584.00
    4346       25.157751    -14.029025      0.126075  141707664.00
    4382       25.368050    -14.161475      0.124305  134273792.00
    4418       25.578350    -14.293924      0.122540  127135600.00
    4454       25.788651    -14.426350      0.120775  119880600.00
    4490       25.998951    -14.558775      0.119005  112244688.00
    4526       26.209249    -14.691225      0.117235  104691968.00
    4562       26.419552    -14.823675      0.115465  97176520.000
    4598       26.629900    -14.956100      0.113695  89661808.000
    4634       26.840252    -15.088551      0.111925  82190344.000
    4670       27.050550    -15.221001      0.110155  74690744.000
    4706       27.260849    -15.353425      0.108385  67350440.000
    4742       27.471149    -15.485849      0.106615  60088320.000
    4778       27.681450    -15.618299      0.104845  53003952.000
    4814       27.891750    -15.750750      0.103075  46189972.000
    4850       28.102051    -15.883175      0.101305  39465512.000
    4886       28.312347    -16.015625      0.099535  33304326.000
    4922       28.522650    -16.148075      0.097770  27384418.000
    4958       28.732952    -16.280500      0.096005  22022560.000
    4994       28.943300    -16.412926      0.094235  17618616.000
    5030       29.153652    -16.545374      0.092465  12634320.000
    5066       29.363951    -16.677826      0.090695  9784712.0000
    5102       29.574249    -16.810249      0.088925  13383716.000
    5138       29.784550    -16.942699      0.087155  24347778.000
    5174       29.994850    -17.075150      0.085385  54760944.000
                       MSC.Patran 21.0.306208 Wed Nov 19 21:06:29 PST 2014 - Analysis Code: MSC.Nastran 

                                   Load Case: SC104: AIRCRAFT TYPE SIERRA, A1:Static Subcase 

                                             Result Stress Tensor,  - Layer At Z2 

                                                     Entity: Element Tensor


-Entity ID---X Location----Y Location----Z Location----von Mises---
      26        0.102850      0.000000      0.313500  545661312.00
      62        0.308550      0.000000      0.313500  563799424.00
      98        0.514250      0.000000      0.313500  586057088.00
     134        0.720000      0.000000      0.313500  608220224.00
     170        0.925750      0.000000      0.313500  627112768.00
     206        1.131450      0.000000      0.313500  641970688.00
     242        1.337150      0.000000      0.313500  651825344.00
     278        1.542850      0.000000      0.313500  656687360.00
     314        1.748550      0.000000      0.313500  654916608.00
     350        1.954250      0.000000      0.313500  645424192.00
     386        2.160000      0.000000      0.313500  625904768.00
     422        2.365750      0.000000      0.313500  595130240.00
     458        2.571450      0.000000      0.313500  556389888.00
     494        2.777150      0.000000      0.313500  515367040.00
     530        2.983350     -0.065075      0.312630  487351456.00
     566        3.190000     -0.195200      0.310890  477446112.00
     602        3.396650     -0.325350      0.309150  483621184.00
     638        3.603350     -0.455525      0.307415  497269632.00
     674        3.810000     -0.585650      0.305680  510865120.00
     710        4.016650     -0.715775      0.303940  517006304.00
     746        4.223350     -0.845950      0.302200  516775040.00
     782        4.430000     -0.976100      0.300460  510787360.00
     818        4.636650     -1.106225      0.298720  503337184.00
     854        4.843350     -1.236375      0.296980  495331936.00
     890        5.050000     -1.366525      0.295240  489166656.00
     926        5.256650     -1.496675      0.293505  483366976.00
     962        5.463350     -1.626825      0.291770  478884768.00
     998        5.670000     -1.756950      0.290030  475904064.00
    1034        5.876650     -1.887100      0.288290  473826048.00
    1070        6.083350     -2.017250      0.286550  472207616.00
    1106        6.290000     -2.147375      0.284810  471050880.00
    1142        6.496650     -2.277525      0.283070  470148864.00
    1178        6.703350     -2.407675      0.281335  468745728.00
    1214        6.910000     -2.537825      0.279600  467453536.00
    1250        7.116650     -2.667975      0.277860  466933984.00
    1286        7.323350     -2.798100      0.276120  466675232.00
    1322        7.530000     -2.928250      0.274380  466707840.00
    1358        7.736650     -3.058425      0.272640  467157920.00
    1394        7.943350     -3.188550      0.270900  467512768.00
    1430        8.150000     -3.318675      0.269160  467546752.00
    1466        8.356649     -3.448850      0.267425  464744384.00
    1502        8.563351     -3.579000      0.265690  458962720.00
    1538        8.770000     -3.709125      0.263950  451411968.00
    1574        8.976650     -3.839275      0.262210  444814176.00
    1610        9.183351     -3.969425      0.260470  441795648.00
    1646        9.390000     -4.099575      0.258730  443377312.00
    1682        9.596650     -4.229725      0.256990  447370720.00
    1718        9.805150     -4.361000      0.255235  451031648.00
    1754       10.015450     -4.493450      0.253470  452120384.00
    1790       10.225750     -4.625900      0.251705  450872320.00
    1826       10.436049     -4.758325      0.249935  449004672.00
    1862       10.646350     -4.890775      0.248165  446404320.00
    1898       10.856700     -5.023225      0.246395  443818944.00
    1934       11.067050     -5.155650      0.244625  441038656.00
    1970       11.277349     -5.288075      0.242855  438572768.00
    2006       11.487650     -5.420525      0.241085  435962880.00
    2042       11.697950     -5.552950      0.239315  433583872.00
    2078       11.908250     -5.685375      0.237545  431067136.00
    2114       12.118549     -5.817825      0.235775  428729728.00
    2150       12.328850     -5.950275      0.234005  426292000.00
    2186       12.539150     -6.082700      0.232235  424023520.00
    2222       12.749450     -6.215125      0.230465  421678944.00
    2258       12.959750     -6.347575      0.228695  419425280.00
    2294       13.170100     -6.480025      0.226930  416425984.00
    2330       13.380450     -6.612451      0.225165  413378208.00
    2366       13.590750     -6.744900      0.223395  410876832.00
    2402       13.801050     -6.877350      0.221625  408374432.00
    2438       14.011351     -7.009775      0.219855  405734496.00
    2474       14.221650     -7.142200      0.218085  403007360.00
    2510       14.431950     -7.274650      0.216315  400134144.00
    2546       14.642250     -7.407100      0.214545  397222432.00
    2582       14.852550     -7.539525      0.212775  394241600.00
    2618       15.062850     -7.671975      0.211005  391230880.00
    2654       15.273200     -7.804425      0.209235  388108768.00
    2690       15.483550     -7.936851      0.207465  384973600.00
    2726       15.693851     -8.069275      0.205695  381878528.00
    2762       15.904150     -8.201725      0.203925  378801984.00
    2798       16.114450     -8.334175      0.202155  375706400.00
    2834       16.324751     -8.466600      0.200390  371980416.00
    2870       16.535049     -8.599051      0.198625  368116064.00
    2906       16.745350     -8.731500      0.196855  364800768.00
    2942       16.955650     -8.863925      0.195085  361399392.00
    2978       17.165951     -8.996349      0.193315  357871968.00
    3014       17.376249     -9.128799      0.191545  354194272.00
    3050       17.586599     -9.261250      0.189775  350349344.00
    3086       17.796949     -9.393675      0.188005  346410976.00
    3122       18.007250     -9.526125      0.186235  342446912.00
    3158       18.217550     -9.658575      0.184465  338403008.00
    3194       18.427851     -9.791000      0.182695  334296544.00
    3230       18.638151     -9.923426      0.180925  330160832.00
    3266       18.848450    -10.055876      0.179155  326023360.00
    3302       19.058750    -10.188326      0.177385  321874144.00
    3338       19.269051    -10.320750      0.175620  317103136.00
    3374       19.479351    -10.453199      0.173855  312195008.00
    3410       19.689650    -10.585649      0.172085  307791104.00
    3446       19.900000    -10.718075      0.170315  303198976.00
    3482       20.110350    -10.850500      0.168545  298409856.00
    3518       20.320650    -10.982950      0.166775  293489568.00
    3554       20.530951    -11.115400      0.165005  288437120.00
    3590       20.741249    -11.247825      0.163235  283286368.00
    3626       20.951550    -11.380276      0.161465  278039264.00
    3662       21.161850    -11.512725      0.159695  272684832.00
    3698       21.372150    -11.645150      0.157925  267201456.00
    3734       21.582449    -11.777575      0.156155  261607424.00
    3770       21.792751    -11.910025      0.154385  255949648.00
    3806       22.003050    -12.042475      0.152615  250291056.00
    3842       22.213402    -12.174900      0.150845  244588416.00
    3878       22.423750    -12.307350      0.149080  238301008.00
    3914       22.634048    -12.439800      0.147315  231851952.00
    3950       22.844351    -12.572201      0.145545  225818368.00
    3986       23.054649    -12.704624      0.143775  219577936.00
    4022       23.264950    -12.837074      0.142005  213107888.00
    4058       23.475250    -12.969525      0.140235  206449440.00
    4094       23.685551    -13.101950      0.138465  199678864.00
    4130       23.895849    -13.234400      0.136695  192818272.00
    4166       24.106152    -13.366850      0.134925  185854832.00
    4202       24.316450    -13.499275      0.133155  178804816.00
    4238       24.526802    -13.631700      0.131385  171597008.00
    4274       24.737150    -13.764151      0.129615  164257248.00
    4310       24.947449    -13.896601      0.127845  156841488.00
    4346       25.157751    -14.029025      0.126075  149406800.00
    4382       25.368050    -14.161475      0.124305  141980256.00
    4418       25.578350    -14.293924      0.122540  134197376.00
    4454       25.788651    -14.426350      0.120775  126240176.00
    4490       25.998951    -14.558775      0.119005  118599136.00
    4526       26.209249    -14.691225      0.117235  110836792.00
    4562       26.419552    -14.823675      0.115465  102966280.00
    4598       26.629900    -14.956100      0.113695  95080128.000
    4634       26.840252    -15.088551      0.111925  87176464.000
    4670       27.050550    -15.221001      0.110155  79413424.000
    4706       27.260849    -15.353425      0.108385  71659360.000
    4742       27.471149    -15.485849      0.106615  64056780.000
    4778       27.681450    -15.618299      0.104845  56590260.000
    4814       27.891750    -15.750750      0.103075  49275644.000
    4850       28.102051    -15.883175      0.101305  42342804.000
    4886       28.312347    -16.015625      0.099535  35524124.000
    4922       28.522650    -16.148075      0.097770  29413366.000
    4958       28.732952    -16.280500      0.096005  23517938.000
    4994       28.943300    -16.412926      0.094235  18133406.000
    5030       29.153652    -16.545374      0.092465  15171349.000
    5066       29.363951    -16.677826      0.090695  10925314.000
    5102       29.574249    -16.810249      0.088925  5315123.0000
    5138       29.784550    -16.942699      0.087155  18268804.000
    5174       29.994850    -17.075150      0.085385  50780452.000


                                                      SUMMARY INFORMATION
                                                  _________________________

                                                         Min/Max Values
    -Source ID--Entity ID---Sub ID-----von Mises---
Min:     2       5102          0     5315123.0000
Max:     2        278          0     656687360.00


                                                         Result Sources
-Source Id---Loadcase Name---------Subcase Name---------Layer Name----
      1     SC104: AIRCRAFT TYPE SIERRA   A1:Static Subcase    At Z1              
      2     SC104: AIRCRAFT TYPE SIERRA   A1:Static Subcase    At Z2              



