




                       MSC.Patran 21.0.306208 Wed Nov 19 21:06:29 PST 2014 - Analysis Code: MSC.Nastran 

                                   Load Case: SC104: AIRCRAFT TYPE SIERRA, A1:Static Subcase 

                                             Result Stress Tensor,  - Layer At Z1 

                                                     Entity: Element Tensor


-Entity ID---X Location----Y Location----Z Location----von Mises---
      17        0.102850      1.567500      0.000000  82056912.000
      53        0.308550      1.567500      0.000000  206044944.00
      89        0.514250      1.567500      0.000000  149241584.00
     125        0.720000      1.567500      0.000000  141809296.00
     161        0.925750      1.567500      0.000000  143362336.00
     197        1.131450      1.567500      0.000000  139219696.00
     233        1.337150      1.567500      0.000000  140526752.00
     269        1.542850      1.567500      0.000000  139609584.00
     305        1.748550      1.567500      0.000000  140102416.00
     341        1.954250      1.567500      0.000000  139903440.00
     377        2.160000      1.567500      0.000000  141462848.00
     413        2.365750      1.567500      0.000000  138261648.00
     449        2.571450      1.567500      0.000000  166434864.00
     485        2.777150      1.567500      0.000000  194018096.00
     521        2.983350      1.498100      0.000000  34002216.000
     557        3.190000      1.359250      0.000000  59677032.000
     593        3.396650      1.220400      0.000000  84791328.000
     629        3.603350      1.081550      0.000000  82271680.000
     665        3.810000      0.942700      0.000000  87170112.000
     701        4.016650      0.803900      0.000000  86934576.000
     737        4.223350      0.665050      0.000000  85769280.000
     773        4.430000      0.526200      0.000000  83096080.000
     809        4.636650      0.387400      0.000000  79709960.000
     845        4.843350      0.248550      0.000000  75539056.000
     881        5.050000      0.109700      0.000000  71426136.000
     917        5.256650     -0.029150      0.000000  67278400.000
     953        5.463350     -0.168000      0.000000  63634328.000
     989        5.670000     -0.306800      0.000000  60000408.000
    1025        5.876650     -0.445650      0.000000  56797388.000
    1061        6.083350     -0.584500      0.000000  53903652.000
    1097        6.290000     -0.723350      0.000000  50909876.000
    1133        6.496650     -0.862200      0.000000  48416284.000
    1169        6.703350     -1.001000      0.000000  46030996.000
    1205        6.910000     -1.139850      0.000000  43155876.000
    1241        7.116650     -1.278700      0.000000  41361264.000
    1277        7.323350     -1.417500      0.000000  39173008.000
    1313        7.530000     -1.556350      0.000000  36598916.000
    1349        7.736650     -1.695200      0.000000  35771792.000
    1385        7.943350     -1.834050      0.000000  31820770.000
    1421        8.150000     -1.972900      0.000000  34481868.000
    1457        8.356649     -2.111700      0.000000  24451868.000
    1493        8.563351     -2.250550      0.000000  40516144.000
    1529        8.770000     -2.389400      0.000000  13372120.000
    1565        8.976650     -2.528200      0.000000  74036520.000
    1601        9.183351     -2.667050      0.000000  87103648.000
    1637        9.390000     -2.805900      0.000000  442552576.00
    1673        9.596650     -2.944750      0.000000  551986048.00
    1709        9.805150     -3.084800      0.000000  578570368.00
    1745       10.015450     -3.226050      0.000000  420946560.00
    1781       10.225750     -3.367350      0.000000  89506992.000
    1817       10.436049     -3.508650      0.000000  32681078.000
    1853       10.646350     -3.649950      0.000000  51076320.000
    1889       10.856700     -3.791250      0.000000  20238562.000
    1925       11.067050     -3.932550      0.000000  38018396.000
    1961       11.277349     -4.073800      0.000000  26108144.000
    1997       11.487650     -4.215050      0.000000  33518056.000
    2033       11.697950     -4.356350      0.000000  28335264.000
    2069       11.908250     -4.497650      0.000000  31783820.000
    2105       12.118549     -4.638950      0.000000  29435580.000
    2141       12.328850     -4.780250      0.000000  31055328.000
    2177       12.539150     -4.921550      0.000000  29973328.000
    2213       12.749450     -5.062800      0.000000  31027812.000
    2249       12.959750     -5.204050      0.000000  30372972.000
    2285       13.170100     -5.345350      0.000000  30989766.000
    2321       13.380450     -5.486650      0.000000  30751830.000
    2357       13.590750     -5.627950      0.000000  31148784.000
    2393       13.801050     -5.769250      0.000000  31208336.000
    2429       14.011351     -5.910550      0.000000  31453706.000
    2465       14.221650     -6.051800      0.000000  31800520.000
    2501       14.431950     -6.193050      0.000000  31871638.000
    2537       14.642250     -6.334350      0.000000  32109034.000
    2573       14.852550     -6.475650      0.000000  32371396.000
    2609       15.062850     -6.616950      0.000000  32587770.000
    2645       15.273200     -6.758250      0.000000  32956562.000
    2681       15.483550     -6.899550      0.000000  33066332.000
    2717       15.693851     -7.040800      0.000000  33532222.000
    2753       15.904150     -7.182050      0.000000  33654780.000
    2789       16.114450     -7.323350      0.000000  33944268.000
    2825       16.324751     -7.464650      0.000000  34193044.000
    2861       16.535049     -7.605950      0.000000  34453072.000
    2897       16.745350     -7.747250      0.000000  34728700.000
    2933       16.955650     -7.888550      0.000000  34973272.000
    2969       17.165951     -8.029799      0.000000  35377856.000
    3005       17.376249     -8.171050      0.000000  35449820.000
    3041       17.586599     -8.312350      0.000000  35814076.000
    3077       17.796949     -8.453650      0.000000  35953848.000
    3113       18.007250     -8.594950      0.000000  36188040.000
    3149       18.217550     -8.736250      0.000000  36396084.000
    3185       18.427851     -8.877550      0.000000  36555660.000
    3221       18.638151     -9.018801      0.000000  36879600.000
    3257       18.848450     -9.160049      0.000000  36925396.000
    3293       19.058750     -9.301350      0.000000  37088704.000
    3329       19.269051     -9.442650      0.000000  37217340.000
    3365       19.479351     -9.583950      0.000000  37296152.000
    3401       19.689650     -9.725250      0.000000  37393600.000
    3437       19.900000     -9.866500      0.000000  37680248.000
    3473       20.110350    -10.007750      0.000000  37548968.000
    3509       20.320650    -10.149050      0.000000  37619660.000
    3545       20.530951    -10.290350      0.000000  37656576.000
    3581       20.741249    -10.431650      0.000000  37642000.000
    3617       20.951550    -10.572950      0.000000  37621052.000
    3653       21.161850    -10.714251      0.000000  37543824.000
    3689       21.372150    -10.855499      0.000000  37584592.000
    3725       21.582449    -10.996750      0.000000  37395556.000
    3761       21.792751    -11.138050      0.000000  37294424.000
    3797       22.003050    -11.279350      0.000000  37149608.000
    3833       22.213402    -11.420650      0.000000  37047440.000
    3869       22.423750    -11.561950      0.000000  36760396.000
    3905       22.634048    -11.703250      0.000000  36530016.000
    3941       22.844351    -11.844500      0.000000  36413188.000
    3977       23.054649    -11.985750      0.000000  36055908.000
    4013       23.264950    -12.127050      0.000000  35775552.000
    4049       23.475250    -12.268350      0.000000  35442272.000
    4085       23.685551    -12.409650      0.000000  35082696.000
    4121       23.895849    -12.550950      0.000000  34696348.000
    4157       24.106152    -12.692250      0.000000  34256844.000
    4193       24.316450    -12.833500      0.000000  33863720.000
    4229       24.526802    -12.974750      0.000000  33359018.000
    4265       24.737150    -13.116050      0.000000  32820892.000
    4301       24.947449    -13.257350      0.000000  32275888.000
    4337       25.157751    -13.398650      0.000000  31689086.000
    4373       25.368050    -13.539950      0.000000  31060778.000
    4409       25.578350    -13.681250      0.000000  30324660.000
    4445       25.788651    -13.822500      0.000000  29659674.000
    4481       25.998951    -13.963750      0.000000  28887000.000
    4517       26.209249    -14.105050      0.000000  28077590.000
    4553       26.419552    -14.246350      0.000000  27193852.000
    4589       26.629900    -14.387650      0.000000  26280828.000
    4625       26.840252    -14.528950      0.000000  25273512.000
    4661       27.050550    -14.670250      0.000000  24210688.000
    4697       27.260849    -14.811500      0.000000  23107138.000
    4733       27.471149    -14.952750      0.000000  21873152.000
    4769       27.681450    -15.094050      0.000000  20583136.000
    4805       27.891750    -15.235350      0.000000  19198688.000
    4841       28.102051    -15.376650      0.000000  17703234.000
    4877       28.312347    -15.517950      0.000000  16132898.000
    4913       28.522650    -15.659250      0.000000  14336437.000
    4949       28.732952    -15.800501      0.000000  12573694.000
    4985       28.943300    -15.941750      0.000000  10577120.000
    5021       29.153652    -16.083050      0.000000  8544144.0000
    5057       29.363951    -16.224350      0.000000  6181255.0000
    5093       29.574249    -16.365650      0.000000  3907087.2500
    5129       29.784550    -16.506950      0.000000  1053614.7500
    5165       29.994850    -16.648251      0.000000  806783.50000
                       MSC.Patran 21.0.306208 Wed Nov 19 21:06:29 PST 2014 - Analysis Code: MSC.Nastran 

                                   Load Case: SC104: AIRCRAFT TYPE SIERRA, A1:Static Subcase 

                                             Result Stress Tensor,  - Layer At Z2 

                                                     Entity: Element Tensor


-Entity ID---X Location----Y Location----Z Location----von Mises---
      17        0.102850      1.567500      0.000000  31684806.000
      53        0.308550      1.567500      0.000000  56694372.000
      89        0.514250      1.567500      0.000000  23284710.000
     125        0.720000      1.567500      0.000000  22614396.000
     161        0.925750      1.567500      0.000000  13982494.000
     197        1.131450      1.567500      0.000000  13891576.000
     233        1.337150      1.567500      0.000000  11575415.000
     269        1.542850      1.567500      0.000000  11505765.000
     305        1.748550      1.567500      0.000000  11034774.000
     341        1.954250      1.567500      0.000000  10755990.000
     377        2.160000      1.567500      0.000000  9870868.0000
     413        2.365750      1.567500      0.000000  9955501.0000
     449        2.571450      1.567500      0.000000  6514300.0000
     485        2.777150      1.567500      0.000000  8315711.0000
     521        2.983350      1.498100      0.000000  18029800.000
     557        3.190000      1.359250      0.000000  7427125.0000
     593        3.396650      1.220400      0.000000  17005232.000
     629        3.603350      1.081550      0.000000  12445047.000
     665        3.810000      0.942700      0.000000  13403741.000
     701        4.016650      0.803900      0.000000  12143948.000
     737        4.223350      0.665050      0.000000  11266643.000
     773        4.430000      0.526200      0.000000  10066947.000
     809        4.636650      0.387400      0.000000  8752163.0000
     845        4.843350      0.248550      0.000000  7365389.5000
     881        5.050000      0.109700      0.000000  6370751.0000
     917        5.256650     -0.029150      0.000000  6290288.0000
     953        5.463350     -0.168000      0.000000  7081799.0000
     989        5.670000     -0.306800      0.000000  8832720.0000
    1025        5.876650     -0.445650      0.000000  10790109.000
    1061        6.083350     -0.584500      0.000000  13035703.000
    1097        6.290000     -0.723350      0.000000  15311152.000
    1133        6.496650     -0.862200      0.000000  17628508.000
    1169        6.703350     -1.001000      0.000000  19699524.000
    1205        6.910000     -1.139850      0.000000  22258844.000
    1241        7.116650     -1.278700      0.000000  24010824.000
    1277        7.323350     -1.417500      0.000000  26143144.000
    1313        7.530000     -1.556350      0.000000  28472060.000
    1349        7.736650     -1.695200      0.000000  29403776.000
    1385        7.943350     -1.834050      0.000000  33375462.000
    1421        8.150000     -1.972900      0.000000  30662638.000
    1457        8.356649     -2.111700      0.000000  41760700.000
    1493        8.563351     -2.250550      0.000000  24556056.000
    1529        8.770000     -2.389400      0.000000  63794616.000
    1565        8.976650     -2.528200      0.000000  19090196.000
    1601        9.183351     -2.667050      0.000000  131370688.00
    1637        9.390000     -2.805900      0.000000  445595456.00
    1673        9.596650     -2.944750      0.000000  556775616.00
    1709        9.805150     -3.084800      0.000000  573102080.00
    1745       10.015450     -3.226050      0.000000  415988672.00
    1781       10.225750     -3.367350      0.000000  47260424.000
    1817       10.436049     -3.508650      0.000000  89179344.000
    1853       10.646350     -3.649950      0.000000  33875420.000
    1889       10.856700     -3.791250      0.000000  64757324.000
    1925       11.067050     -3.932550      0.000000  46497460.000
    1961       11.277349     -4.073800      0.000000  58461156.000
    1997       11.487650     -4.215050      0.000000  51317148.000
    2033       11.697950     -4.356350      0.000000  56592132.000
    2069       11.908250     -4.497650      0.000000  53474628.000
    2105       12.118549     -4.638950      0.000000  55958244.000
    2141       12.328850     -4.780250      0.000000  54596204.000
    2177       12.539150     -4.921550      0.000000  55820268.000
    2213       12.749450     -5.062800      0.000000  55068764.000
    2249       12.959750     -5.204050      0.000000  55792064.000
    2285       13.170100     -5.345350      0.000000  55426724.000
    2321       13.380450     -5.486650      0.000000  55716484.000
    2357       13.590750     -5.627950      0.000000  55481444.000
    2393       13.801050     -5.769250      0.000000  55520352.000
    2429       14.011351     -5.910550      0.000000  55384736.000
    2465       14.221650     -6.051800      0.000000  55198660.000
    2501       14.431950     -6.193050      0.000000  55136448.000
    2537       14.642250     -6.334350      0.000000  54954844.000
    2573       14.852550     -6.475650      0.000000  54745680.000
    2609       15.062850     -6.616950      0.000000  54562964.000
    2645       15.273200     -6.758250      0.000000  54262620.000
    2681       15.483550     -6.899550      0.000000  54107336.000
    2717       15.693851     -7.040800      0.000000  53712556.000
    2753       15.904150     -7.182050      0.000000  53503508.000
    2789       16.114450     -7.323350      0.000000  53182608.000
    2825       16.324751     -7.464650      0.000000  52898372.000
    2861       16.535049     -7.605950      0.000000  52544448.000
    2897       16.745350     -7.747250      0.000000  52177940.000
    2933       16.955650     -7.888550      0.000000  51824000.000
    2969       17.165951     -8.029799      0.000000  51355168.000
    3005       17.376249     -8.171050      0.000000  51073992.000
    3041       17.586599     -8.312350      0.000000  50596768.000
    3077       17.796949     -8.453650      0.000000  50243336.000
    3113       18.007250     -8.594950      0.000000  49818744.000
    3149       18.217550     -8.736250      0.000000  49395692.000
    3185       18.427851     -8.877550      0.000000  49002644.000
    3221       18.638151     -9.018801      0.000000  48501292.000
    3257       18.848450     -9.160049      0.000000  48132984.000
    3293       19.058750     -9.301350      0.000000  47698784.000
    3329       19.269051     -9.442650      0.000000  47281496.000
    3365       19.479351     -9.583950      0.000000  46854836.000
    3401       19.689650     -9.725250      0.000000  46414308.000
    3437       19.900000     -9.866500      0.000000  45869572.000
    3473       20.110350    -10.007750      0.000000  45520304.000
    3509       20.320650    -10.149050      0.000000  45046364.000
    3545       20.530951    -10.290350      0.000000  44589368.000
    3581       20.741249    -10.431650      0.000000  44159744.000
    3617       20.951550    -10.572950      0.000000  43707932.000
    3653       21.161850    -10.714251      0.000000  43288452.000
    3689       21.372150    -10.855499      0.000000  42792868.000
    3725       21.582449    -10.996750      0.000000  42396736.000
    3761       21.792751    -11.138050      0.000000  41935756.000
    3797       22.003050    -11.279350      0.000000  41491424.000
    3833       22.213402    -11.420650      0.000000  41029232.000
    3869       22.423750    -11.561950      0.000000  40642828.000
    3905       22.634048    -11.703250      0.000000  40174976.000
    3941       22.844351    -11.844500      0.000000  39659940.000
    3977       23.054649    -11.985750      0.000000  39222792.000
    4013       23.264950    -12.127050      0.000000  38733264.000
    4049       23.475250    -12.268350      0.000000  38254652.000
    4085       23.685551    -12.409650      0.000000  37770456.000
    4121       23.895849    -12.550950      0.000000  37271560.000
    4157       24.106152    -12.692250      0.000000  36771020.000
    4193       24.316450    -12.833500      0.000000  36231796.000
    4229       24.526802    -12.974750      0.000000  35706108.000
    4265       24.737150    -13.116050      0.000000  35150864.000
    4301       24.947449    -13.257350      0.000000  34572392.000
    4337       25.157751    -13.398650      0.000000  33970484.000
    4373       25.368050    -13.539950      0.000000  33359226.000
    4409       25.578350    -13.681250      0.000000  32744042.000
    4445       25.788651    -13.822500      0.000000  32045620.000
    4481       25.998951    -13.963750      0.000000  31325162.000
    4517       26.209249    -14.105050      0.000000  30569012.000
    4553       26.419552    -14.246350      0.000000  29776442.000
    4589       26.629900    -14.387650      0.000000  28952424.000
    4625       26.840252    -14.528950      0.000000  28069192.000
    4661       27.050550    -14.670250      0.000000  27136362.000
    4697       27.260849    -14.811500      0.000000  26142496.000
    4733       27.471149    -14.952750      0.000000  25084278.000
    4769       27.681450    -15.094050      0.000000  23953382.000
    4805       27.891750    -15.235350      0.000000  22744382.000
    4841       28.102051    -15.376650      0.000000  21444160.000
    4877       28.312347    -15.517950      0.000000  20054310.000
    4913       28.522650    -15.659250      0.000000  18562798.000
    4949       28.732952    -15.800501      0.000000  16912918.000
    4985       28.943300    -15.941750      0.000000  15115374.000
    5021       29.153652    -16.083050      0.000000  13192170.000
    5057       29.363951    -16.224350      0.000000  10965738.000
    5093       29.574249    -16.365650      0.000000  8841163.0000
    5129       29.784550    -16.506950      0.000000  5842675.0000
    5165       29.994850    -16.648251      0.000000  1467481.3750


                                                      SUMMARY INFORMATION
                                                  _________________________

                                                         Min/Max Values
    -Source ID--Entity ID---Sub ID-----von Mises---
Min:     1       5165          0     806783.50000
Max:     1       1709          0     578570368.00


                                                         Result Sources
-Source Id---Loadcase Name---------Subcase Name---------Layer Name----
      1     SC104: AIRCRAFT TYPE SIERRA   A1:Static Subcase    At Z1              
      2     SC104: AIRCRAFT TYPE SIERRA   A1:Static Subcase    At Z2              



